WARNING: for repeatability, setting FPU to use double precision
============================[ Problem Statistics ]=============================
|                                                                             |
|  Number of variables:         71160                                         |
|  Number of clauses:          142083                                         |
|  Parse time:                   0.05 s                                       |
|                                                                             |
============================[ Search Statistics ]==============================
| Conflicts |          ORIGINAL         |          LEARNT          | Progress |
|           |    Vars  Clauses Literals |    Limit  Clauses Lit/Cl |          |
===============================================================================
|       100 |   35328   132203   299334 |    48474      100     32 | 50.354 % |
|       250 |   35328   132203   299334 |    53321      250     47 | 50.354 % |
|       475 |   35328   132203   299334 |    58654      475     92 | 50.354 % |
|       812 |   35328   132203   299334 |    64519      812    104 | 50.354 % |
|      1318 |   35328   132203   299334 |    70971     1318    117 | 50.354 % |
|      2077 |   35328   132203   299334 |    78068     2077    115 | 50.354 % |
|      3216 |   35328   132203   299334 |    85875     3216    124 | 50.354 % |
|      4924 |   35328   132203   299334 |    94462     4924    124 | 50.354 % |
|      7486 |   35328   132203   299334 |   103909     7486    138 | 50.354 % |
|     11330 |   35328   132203   299334 |   114300    11330    134 | 50.354 % |
|     17096 |   35328   132203   299334 |   125730    17096    140 | 50.354 % |
|     25745 |   35328   132203   299334 |   138303    25745    137 | 50.354 % |
|     38719 |   35328   132203   299334 |   152133    38719    128 | 50.354 % |
|     58180 |   35328   132203   299334 |   167346    58180    118 | 50.354 % |
|     87372 |   35328   132203   299334 |   184081    87372     94 | 50.354 % |
|    131161 |   35328   132203   299334 |   202489   131161     78 | 50.354 % |
===============================================================================
restarts              : 468
conflicts             : 171219         (3182 /sec)
decisions             : 310602         (0.00 % random) (5772 /sec)
propagations          : 220030551      (4088924 /sec)
conflict literals     : 11548472       (36.40 % deleted)
Memory used           : 117.00 MB
CPU time              : 53.8114 s

UNSATISFIABLE
